205 854
756 518
525 516
560 819
199 541
250 589
466 519
723 108
180 864
368 655
62 410
426 437
268 453
181 352
433 317
645 571
257 493
317 352
106 93
386 332
276 840
284 876
501 238
544 68
401 522
